
GUB cover cuts applied:  2
Clique cuts applied:  10
Cover cuts applied:  38
Mixed integer rounding cuts applied:  13
Zero-half cuts applied:  162
Lift and project cuts applied:  1
Gomory fractional cuts applied:  8

Root node processing (before b&c):
  Real time             =    1.67 sec. (1319.23 ticks)
Parallel b&c, 4 threads:
  Real time             =    2.39 sec. (1312.07 ticks)
  Sync time (average)   =    0.23 sec.
  Wait time (average)   =    0.00 sec.
                          ------------
Total (root+branch&cut) =    4.06 sec. (2631.30 ticks)
Version identifier: 12.10.0.0 | 2019-11-26 | 843d4de
CPXPARAM_MIP_Interval                            10
CPXPARAM_MIP_Tolerances_AbsMIPGap                0.98999999999999999
Tried aggregator 2 times.
MIP Presolve eliminated 69865 rows and 69936 columns.
MIP Presolve modified 1 coefficients.
Aggregator did 115 substitutions.
Reduced MIP has 7499 rows, 5843 columns, and 23319 nonzeros.
Reduced MIP has 5843 binaries, 0 generals, 0 SOSs, and 0 indicators.
Presolve time = 0.12 sec. (91.84 ticks)
Probing fixed 44 vars, tightened 0 bounds.
Probing changed sense of 92 constraints.
Probing time = 0.01 sec. (10.45 ticks)
Tried aggregator 2 times.
Detecting symmetries...
MIP Presolve eliminated 400 rows and 293 columns.
Aggregator did 55 substitutions.
Reduced MIP has 7044 rows, 5495 columns, and 21889 nonzeros.
Reduced MIP has 5495 binaries, 0 generals, 0 SOSs, and 0 indicators.
Presolve time = 0.03 sec. (36.89 ticks)
Probing time = 0.01 sec. (8.24 ticks)
Clique table members: 11445.
MIP emphasis: balance optimality and feasibility.
MIP search method: dynamic search.
Parallel mode: deterministic, using up to 4 threads.
Root relaxation solution time = 0.06 sec. (49.80 ticks)

        Nodes                                         Cuts/
   Node  Left     Objective  IInf  Best Integer    Best Bound    ItCnt     Gap

      0     0       28.5000   570                     28.5000     1067         
      0     0       27.6667   570                   Cuts: 157     2322         
      0     0       27.3333   570                   Cuts: 155     2930         
      0     0       27.3333   570                   Cuts: 285     3724         
      0     0       27.3333   570                   Cuts: 207     4247         
      0     0       27.3333   570                    Cuts: 24     6188         
Detecting symmetries...
*     0+    0                           17.0000       27.3333            60.78%
      0     0       27.3333   570       17.0000     Cuts: 221     7693   60.78%
*     0+    0                           18.0000       27.3333            51.85%
      0     0        cutoff             18.0000       27.3333     7693   51.85%
      0     0       27.3288   570       18.0000     Cuts: 236     9522   51.83%
      0     0       27.3259   570       18.0000     Cuts: 127    10487   51.81%
      0     0       27.3259   570       18.0000     Cuts: 192    10876   51.81%
*     0+    0                           19.0000       27.3259            43.82%
*     0+    0                           26.0000       27.3259             5.10%
Detecting symmetries...
      0     2       27.3259  1067       26.0000       27.3259    10876    5.10%
Elapsed time = 4.31 sec. (3617.91 ticks, tree = 0.02 MB, solutions = 4)
     10    10       27.2722   567       26.0000       27.3246    15186    5.09%
     20     7        cutoff             26.0000       27.3216    23277    5.08%
     30     4        cutoff             26.0000       27.3216    30315    5.08%
the number of Nodes = 38
